NAME : portcgen-22-10
COMMENT : portcgen N=22, seed=10
TYPE : TSP
DIMENSION : 22
EDGE_WEIGHT_TYPE : EUC_2D
NODE_COORD_SECTION
1 -202558 338078
2 221875 149112
3 90400 90972
4 270126 -99189
5 14297 -59304
6 -41444 -9601
7 219711 49372
8 83307 95138
9 -331734 14706
10 -222715 212418
11 57816 -247933
12 -61696 74365
13 -244106 -208520
14 -136531 218864
15 108524 -80891
16 -258237 -132557
17 300196 26807
18 28802 -347288
19 -128894 -150570
20 31035 675396
21 -84512 34099
22 -74884 -168941
